************************************************************************
file with basedata            : md330_.bas
initial value random generator: 1721760359
************************************************************************
projects                      :  1
jobs (incl. supersource/sink ):  22
horizon                       :  144
RESOURCES
  - renewable                 :  2   R
  - nonrenewable              :  2   N
  - doubly constrained        :  0   D
************************************************************************
PROJECT INFORMATION:
pronr.  #jobs rel.date duedate tardcost  MPM-Time
    1     20      0       18       16       18
************************************************************************
PRECEDENCE RELATIONS:
jobnr.    #modes  #successors   successors
   1        1          3           2   3   4
   2        3          3           8  11  17
   3        3          3           5   6  11
   4        3          1           6
   5        3          3           7   9  15
   6        3          3           7  13  15
   7        3          2           8  18
   8        3          3          10  12  16
   9        3          2          13  18
  10        3          1          14
  11        3          2          14  20
  12        3          1          19
  13        3          3          14  20  21
  14        3          1          19
  15        3          2          17  18
  16        3          1          19
  17        3          1          21
  18        3          2          20  21
  19        3          1          22
  20        3          1          22
  21        3          1          22
  22        1          0        
************************************************************************
REQUESTS/DURATIONS:
jobnr. mode duration  R 1  R 2  N 1  N 2
------------------------------------------------------------------------
  1      1     0       0    0    0    0
  2      1     1       5    0    0    5
         2     6       0    7    0    4
         3     7       0    4    6    0
  3      1     3       9    0    7    0
         2     5       0    2    5    0
         3     7       9    0    0    5
  4      1     1       7    0    0    7
         2     5       0    4    9    0
         3     9       0    1    9    0
  5      1     3       0    2    0   10
         2     8       0    1    5    0
         3     9       6    0    0    3
  6      1     2       3    0    0    8
         2     2       0    7    2    0
         3     3       3    0    0    7
  7      1     3       0    6    6    0
         2     7       0    5    3    0
         3    10       0    3    0    8
  8      1     2       0   10    0    4
         2     5      10    0    0    4
         3     6       0    9    0    4
  9      1     1       9    0    7    0
         2     8       7    0    4    0
         3     9       3    0    2    0
 10      1     4       0    6    0    8
         2     6       0    5    1    0
         3     9       0    2    0    5
 11      1     2       9    0    6    0
         2     9       9    0    4    0
         3    10       9    0    0    1
 12      1     3       8    0    0    7
         2     4       8    0    6    0
         3     5       7    0    0    7
 13      1     1       7    0    0    4
         2     3       7    0    1    0
         3     3       7    0    0    1
 14      1     1       5    0    0    8
         2     2       0    7    0    6
         3     2       5    0    0    2
 15      1     1       0    7    5    0
         2     4       3    0    1    0
         3     4       2    0    2    0
 16      1     4       0    6   10    0
         2     5       9    0   10    0
         3    10       0    5    0    4
 17      1     3       0    5    4    0
         2     3       0    6    0    7
         3     7       1    0    0    7
 18      1     7       0    8   10    0
         2    10       2    0    0    8
         3    10       0    8    8    0
 19      1     2       8    0    6    0
         2     4       8    0    0    9
         3     8       0    5    6    0
 20      1     1       0    7    8    0
         2     1       6    0    0    6
         3    10       5    0    0    6
 21      1     2       0    7   10    0
         2     3       3    0   10    0
         3     6       0    6    0    9
 22      1     0       0    0    0    0
************************************************************************
RESOURCEAVAILABILITIES:
  R 1  R 2  N 1  N 2
   15   14   56   62
************************************************************************
MAXIMAL LAGS:
from  to  type  delay
    1   12   ES      0
    1    2   ES      0
    2   12   ES      0
    1    3   ES      0
    3   12   ES      0
    1    4   ES      0
    4   12   ES      0
    1    5   ES      0
    5   12   ES      0
    1    6   ES      0
    6   12   ES      0
    1    7   ES      0
    7   12   ES      0
    1    8   ES      0
    8   12   ES      0
    1    9   ES      0
    9   12   ES      0
    1   10   ES      0
   10   12   ES      0
    1   11   ES      0
   11   12   ES      0
    1   12   ES      0
    2    8   SS      7
    2    8   SE      4
    2    8   ES     11
    2    8   EE     -8
    2   11   SS    -10
    2   11   SE     -4
    2   11   ES     12
    2   11   EE      1
    2   17   SS     -2
    2   17   SE      4
    2   17   ES     -4
    2   17   EE    -12
    3    5   SS     -3
    3    5   SE     11
    3    5   ES     -3
    3    5   EE      6
    3    6   SS      6
    3    6   SE      9
    3    6   ES      3
    3    6   EE     -8
    3   11   SS      2
    3   11   SE      5
    3   11   ES      3
    3   11   EE     -1
    4    6   SS     -2
    4    6   SE      5
    4    6   ES     12
    4    6   EE      5
    5    7   SS      0
    5    7   SE      2
    5    7   ES     -2
    5    7   EE     -6
    5    9   SS     10
    5    9   SE     -5
    5    9   ES      6
    5    9   EE      0
    5   15   SS     -5
    5   15   SE     12
    5   15   ES      1
    5   15   EE    -11
    6    7   SS     -2
    6    7   SE     11
    6    7   ES      3
    6    7   EE     10
    6   13   SS      0
    6   13   SE      0
    6   13   ES      9
    6   13   EE      8
    6   15   SS     -8
    6   15   SE      3
    6   15   ES    -11
    6   15   EE     -8
    7    8   SS      4
    7    8   SE      6
    7    8   ES     -2
    7    8   EE     -9
    7   18   SS      2
    7   18   SE     -9
    7   18   ES      4
    7   18   EE      2
    8   10   SS    -12
    8   10   SE     11
    8   10   ES     -8
    8   10   EE      1
    8   16   SS      8
    8   16   SE     -8
    8   16   ES    -10
    8   16   EE      3
    9   13   SS     -4
    9   13   SE     -2
    9   13   ES      7
    9   13   EE     10
    9   18   SS      0
    9   18   SE      8
    9   18   ES    -10
    9   18   EE     -2
   10   14   SS      9
   10   14   SE      5
   14   10   SE      0
   10   14   ES      0
   10   14   EE     -2
   11   14   SS      8
   11   14   SE     10
   11   14   ES     12
   11   14   EE      3
   11   20   SS      5
   11   20   SE    -11
   11   20   ES      7
   11   20   EE    -10
   12   19   SS     -5
   12   19   SE      8
   12   19   ES      9
   12   19   EE     -3
   13   14   SS     -5
   13   14   SE     11
   13   14   ES    -10
   13   14   EE      1
   13   20   SS     -9
   13   20   SE     12
   13   20   ES      8
   13   20   EE     10
   13   21   SS     -9
   13   21   SE      2
   13   21   ES     -7
   13   21   EE     10
   14   19   SS     -3
   14   19   SE    -12
   14   19   ES    -11
   14   19   EE     -2
   15   17   SS    -11
   15   17   SE     -3
   15   17   ES     -1
   15   17   EE     -1
   15   18   SS      1
   15   18   SE     -8
   15   18   ES     -5
   15   18   EE      4
   16   19   SS      1
   16   19   SE      6
   16   19   ES      9
   16   19   EE     -7
   17   21   SS     -7
   17   21   SE     -7
   17   21   ES    -10
   17   21   EE      7
   18   20   SS      0
   18   20   SE      7
   18   20   ES      9
   18   20   EE     -5
   18   21   SS      3
   18   21   SE      6
   18   21   ES     -8
   18   21   EE     -5
   19   22   SS      2
   19   22   SE      8
   19   22   ES     -4
   19   22   EE      2
   20   22   SS     -4
   20   22   SE      9
   20   22   ES    -12
   20   22   EE      2
   21   22   SS     -3
   21   22   SE      9
   21   22   ES      5
   21   22   EE     -7
************************************************************************
